p wcnf 7 24 103
103 1 2 0
103 1 3 0
103 1 4 0
103 1 5 0
103 2 3 0
103 2 4 0
103 2 5 0
103 2 6 0
103 3 5 0
103 3 6 0
103 3 7 0
103 4 5 0
103 4 6 0
103 4 7 0
103 5 6 0
103 5 7 0
103 6 7 0
13 -1 0
13 -2 0
14 -3 0
14 -4 0
15 -5 0
16 -6 0
17 -7 0
